5368.54 565807
296923 233166
568188 18886.2
20040.2 510477
572728 13852.7
93984.9 440500
561707 30315.9
194740 379055
474507 106135
357219 224990
292372 249593
455644 106744
374641 221692
41198.4 502226
357088 225401
216224 362145
222754 344043
287370 272912
404392 196265
235793 335084
374841 206009
172093 395993
137531 413160
137146 413840
136657 433804
17364.6 562241
241529 323655
272256 286539
245005 310044
229923 337336
479563 96332.9
167396 401483
289865 264207
89413.5 463661
255510 305688
257882 303838
382421 199162
242003 321144
410059 150827
436033 136519
283879 273797
174790 387253
220498 352465
443617 120042
443026 122230
267943 288075
213959 363336
207993 374692
439412 130849
213394 371329
213805 364259
